p cnf 7 6
-1 1 ?=9$)?%1*.6"2&#)3.-& 3.4916950383334155 0
-7 -2 -1 1 2 4 7 4111976861711507900 1.1516928577192465 0
 2 7 2.697404813648814 0
-4 -2 -6 -5 1 2 3 4 5 6 7 4111976861711507900 3.398558393441883 0
-4 -6 1 3 4 5 6 3.1312776326208724 0
